c instance by G2
c solution = 01000
c Known solution cost is 234 
p cnf 5 30
w 85 59 28 10 52
-3 5 4 0
2 -3 4 0
1 2 -5 0
1 -3 5 0
-5 -3 4 0
-5 4 1 0
-4 5 3 0
1 -4 -3 0
-2 -1 4 0
2 -4 -1 0
1 -4 3 0
3 -4 -5 0
-5 -3 4 0
4 -3 1 0
2 -4 1 0
-5 3 1 0
-2 3 -1 0
-3 -4 -2 0
-1 -3 -4 0
-4 -3 2 0
-4 3 -1 0
4 2 3 0
2 -4 -3 0
5 -2 -4 0
5 2 1 0
-1 2 -4 0
2 3 4 0
-1 -2 -4 0
4 3 -1 0
5 3 2 0
